c b=5,c=1025
p cnf 20 25
5 -10 0
5 -20 0
-5 10 0
-5 20 0
4 -9 0
4 -19 0
-4 9 0
-4 19 0
3 -8 0
3 -18 0
-3 8 0
-3 18 0
2 -7 0
2 -17 0
-2 7 0
-2 17 0
1 -6 0
1 -16 0
-1 6 0
-1 16 0
-11 0
-12 0
-13 0
-14 0
-15 0
